%mem=1gb
%chk=testBmat.chk
#p amber=softonly geom=connectivity nosymm
iop(4/33=3,7/33=1)
freq=intmodes

final

0 1
C-c-0.754205   -0.483346150070     0.159919320449     0.000000000000
O-o--0.580972   -0.383872306886     1.384980809920    -0.000000000000
N-n--0.437191    0.615284913400    -0.650544276565    -0.000199387601
H-hn-0.308758    0.491152011853    -1.652251792320     0.000410446951
C-c3--0.430739    1.965505575350    -0.104815603995     0.000000000000
H-h1-0.174137    2.133586407000     0.514526334318     0.887495616876
H-h1-0.174137    2.678194629380    -0.933121021796    -0.002243383222
H-h1-0.174137    2.132093682760     0.518199922717    -0.885014379029
C-c3--0.641370   -1.833989576450    -0.539059471260    -0.000000000000
H-hc-0.168299   -2.397015398820    -0.218635918622    -0.882450266741
H-hc-0.168299   -1.766142253090    -1.632325000100    -0.000000000000
H-hc-0.168299   -2.396904123440    -0.218694529761     0.882637463178

 1 2 2.0 3 1.0 9 1.0
 2
 3 4 1.0 5 1.0
 4
 5 6 1.0 7 1.0 8 1.0
 6
 7
 8
 9 10 1.0 11 1.0 12 1.0
 10
 11
 12

AmbTrs   *   c   c3  *    0   0   0   0    0.000  9.920  0.000  0.000   6.0
AmbTrs   *   c   n   *    0   0   0   0    0.000 -17.246  0.000  0.000   4.0
AmbTrs   *   c3  n   *    0   0   0   0    0.000 -0.145  0.000  0.000   6.0
HrmBnd1   c3  c   n    72.627  116.22140
HrmBnd1   c3  c   o    69.582  122.00440
HrmBnd1   n   c   o    81.678  121.77410
HrmBnd1   c   c3  hc   45.619  110.46770
HrmBnd1   h1  c3  n    56.634  110.06420
HrmBnd1   h1  c3  h1   40.221  108.87480
HrmBnd1   hc  c3  hc   39.685  108.41660
HrmBnd1   c   n   hn   44.868  119.35210
HrmBnd1   c   n   c3   35.049  121.57620
HrmBnd1   c3  n   hn   37.210  119.07160
HrmStr1   c   c3   303.917  1.52079
HrmStr1   c   n    485.123  1.36523
HrmStr1   c   o    867.506  1.22909
HrmStr1   c3  n    377.746  1.45634
HrmStr1   c3  hc   383.626  1.09495
HrmStr1   c3  h1   383.102  1.09433
HrmStr1   hn  n    529.882  1.00937
Nonbon 3 1 0 0 0.0 0.0 0.5 0.0 0.0 -1.2
VDW    hn  0.6000  0.0157
VDW    c  1.9080  0.0860
VDW    n  1.8240  0.1700
VDW    c3  1.9080  0.1094
VDW    hc  1.4870  0.0157
VDW    h1  1.3870  0.0157
VDW    o  1.6612  0.2100


